#
# Instância do TSPDL com 3 portos.
# Solução ótima: 1 -> 2 -> 3 -> 1
#

data;

set V := 1 2 3;

param d := 
   1 0 
   2 1 
   3 1;

param l := 
   1 3 
   2 1 
   3 2;

param custo := 
   1 1 9999
   1 2 1
   1 3 1
   2 1 1
   2 2 9999
   2 3 1
   3 1 1
   3 2 1
   3 3 9999;

end;

